p cnf 586 2464
1 -2 0
2 -1 0
3 -4 0
4 -3 0
5 -6 0
6 -5 0
7 -8 0
8 -7 0
9 -10 0
10 -9 0
11 -12 0
12 -11 0
13 -14 0
14 -13 0
15 -16 0
16 -15 0
17 -18 0
18 -17 0
19 -20 0
-19 20 0
21 -22 0
22 -21 0
23 -24 0
24 -23 0
25 -26 0
26 -25 0
27 -28 0
28 -27 0
29 -30 0
30 -29 0
31 -32 0
32 -31 0
33 -34 0
34 -33 0
35 -36 0
36 -35 0
37 -38 0
38 -37 0
39 -40 0
-39 40 0
41 -42 0
42 -41 0
43 -44 0
44 -43 0
45 -46 0
46 -45 0
47 -48 0
48 -47 0
49 -50 0
50 -49 0
51 -52 0
52 -51 0
53 -54 0
54 -53 0
55 -56 0
56 -55 0
57 -58 0
58 -57 0
59 -60 0
-59 60 0
61 -62 0
-61 62 0
63 -64 0
-63 64 0
65 -66 0
-65 66 0
67 -68 0
68 -67 0
69 -70 0
70 -69 0
71 -72 0
72 -71 0
73 -74 0
74 -73 0
75 -76 0
76 -75 0
77 -78 0
78 -77 0
79 -80 0
80 -79 0
81 -82 0
-81 82 0
83 -84 0
-83 84 0
85 -86 0
86 -85 0
87 -88 0
88 -87 0
89 -90 0
-89 90 0
91 -92 0
-91 92 0
93 -94 0
-93 94 0
95 -96 0
-95 96 0
97 -98 0
98 -97 0
99 -100 0
-99 100 0
101 -102 0
-101 102 0
103 -104 0
-103 104 0
105 -106 0
106 -105 0
107 -108 0
-107 108 0
109 -110 0
-109 110 0
111 -112 0
-111 112 0
113 -114 0
114 -113 0
115 -116 0
116 -115 0
117 -118 0
118 -117 0
119 -120 0
120 -119 0
13 121 0
33 121 0
-13 -33 -121 0
29 122 0
9 122 0
-29 -9 -122 0
5 123 0
25 123 0
-5 -25 -123 0
1 124 0
21 124 0
-1 -21 -124 0
23 125 0
125 -124 0
-23 124 -125 0
23 126 0
3 126 0
-23 -3 -126 0
3 127 0
127 -124 0
124 -3 -127 0
25 128 0
128 -125 -127 -126 0
127 -128 -25 0
126 -128 -25 0
125 -128 -25 0
5 129 0
-125 -127 -126 129 0
-129 -5 127 0
-129 126 -5 0
-129 125 -5 0
7 130 0
-129 130 -123 -128 0
-7 -130 129 0
-7 128 -130 0
-7 123 -130 0
7 131 0
27 131 0
-7 -27 -131 0
27 132 0
132 -129 -123 -128 0
-27 -132 129 0
128 -27 -132 0
-27 -132 123 0
9 133 0
-132 -131 133 -130 0
132 -9 -133 0
-9 -133 131 0
-9 130 -133 0
29 134 0
-132 -131 134 -130 0
132 -29 -134 0
-29 -134 131 0
-29 130 -134 0
31 135 0
135 -134 -133 -122 0
-135 134 -31 0
-135 133 -31 0
-135 122 -31 0
11 136 0
136 -134 -133 -122 0
134 -11 -136 0
133 -11 -136 0
-11 122 -136 0
11 137 0
31 137 0
-11 -31 -137 0
13 138 0
-135 138 -137 -136 0
-138 137 -13 0
136 -138 -13 0
-138 -13 135 0
33 139 0
-135 139 -137 -136 0
137 -33 -139 0
136 -33 -139 0
135 -33 -139 0
15 140 0
-138 140 -139 -121 0
139 -140 -15 0
138 -140 -15 0
121 -140 -15 0
35 141 0
-138 141 -139 -121 0
139 -35 -141 0
138 -35 -141 0
121 -35 -141 0
35 142 0
15 142 0
-35 -15 -142 0
17 143 0
-140 143 -142 -141 0
-17 -143 142 0
141 -17 -143 0
140 -17 -143 0
17 144 0
37 144 0
-17 -37 -144 0
37 145 0
145 -140 -142 -141 0
-145 -37 142 0
141 -145 -37 0
140 -145 -37 0
145 -19 0
-19 144 0
-19 143 0
23 3 -146 0
23 -146 -124 0
3 -146 -124 0
-23 146 -3 0
-23 124 146 0
124 146 -3 0
25 5 -147 0
146 5 -147 0
25 146 -147 0
147 -5 -25 0
147 -5 -146 0
147 -25 -146 0
-148 7 27 0
-148 147 7 0
-148 147 27 0
148 -7 -27 0
148 -7 -147 0
148 -27 -147 0
29 9 -149 0
148 29 -149 0
148 9 -149 0
149 -29 -9 0
149 -29 -148 0
149 -9 -148 0
-150 31 11 0
149 -150 11 0
149 -150 31 0
150 -11 -31 0
150 -11 -149 0
150 -31 -149 0
33 13 -151 0
150 13 -151 0
33 150 -151 0
151 -13 -33 0
151 -13 -150 0
151 -33 -150 0
35 15 -152 0
151 35 -152 0
151 15 -152 0
-35 -15 152 0
152 -35 -151 0
152 -15 -151 0
-153 17 37 0
-153 17 152 0
-153 37 152 0
153 -17 -37 0
153 -17 -152 0
153 -37 -152 0
153 39 19 -154 0
-39 19 -153 -154 0
39 -19 -153 -154 0
153 -39 -19 -154 0
154 -19 -39 -153 0
153 39 -19 154 0
153 -39 19 154 0
39 19 -153 154 0
-59 -154 0
-155 -41 21 0
-155 -21 41 0
155 -21 -41 0
155 21 41 0
1 -155 0
-1 155 0
-39 -59 0
21 156 0
41 156 0
-21 -41 -156 0
23 -157 43 0
23 -157 -156 0
-157 -156 43 0
157 -23 -43 0
-23 156 157 0
156 157 -43 0
-158 25 45 0
-158 45 157 0
-158 25 157 0
-45 158 -25 0
158 -45 -157 0
158 -25 -157 0
47 27 -159 0
158 27 -159 0
47 158 -159 0
159 -27 -47 0
159 -27 -158 0
159 -47 -158 0
29 -160 49 0
159 -160 49 0
159 29 -160 0
-49 -29 160 0
160 -49 -159 0
160 -29 -159 0
-161 31 51 0
-161 51 160 0
-161 31 160 0
-51 161 -31 0
161 -51 -160 0
161 -31 -160 0
33 -162 53 0
-162 161 53 0
33 -162 161 0
-53 162 -33 0
162 -53 -161 0
162 -33 -161 0
-163 35 55 0
-163 162 35 0
-163 162 55 0
163 -35 -55 0
163 -35 -162 0
163 -55 -162 0
57 -164 37 0
163 57 -164 0
163 -164 37 0
164 -57 -37 0
164 -57 -163 0
164 -37 -163 0
164 39 59 -165 0
39 -59 -164 -165 0
-39 59 -164 -165 0
164 -39 -59 -165 0
165 -39 -59 -164 0
164 -39 165 59 0
164 39 165 -59 0
39 165 59 -164 0
-79 -165 0
163 -166 57 37 0
-163 -57 -166 37 0
-163 -166 57 -37 0
163 -57 -166 -37 0
166 -37 -57 -163 0
163 57 166 -37 0
163 -57 166 37 0
-163 57 166 37 0
-167 31 51 160 0
-167 -51 -160 31 0
-167 -160 51 -31 0
-167 -51 160 -31 0
167 -31 -51 -160 0
167 51 160 -31 0
167 -51 31 160 0
167 -160 31 51 0
25 45 -168 157 0
25 -45 -157 -168 0
45 -157 -168 -25 0
-45 -168 157 -25 0
168 -25 -45 -157 0
168 45 157 -25 0
168 25 -45 157 0
168 25 45 -157 0
61 169 0
-155 169 0
-61 -169 155 0
23 -170 156 43 0
23 -170 -156 -43 0
-23 -170 -156 43 0
-23 -170 156 -43 0
170 -23 -43 -156 0
-23 156 170 43 0
23 156 170 -43 0
23 170 -156 43 0
63 -170 -171 0
-169 63 -171 0
-169 -170 -171 0
-63 170 171 0
-63 169 171 0
169 170 171 0
-172 168 171 0
-172 171 65 0
-172 168 65 0
-168 -171 172 0
-65 -171 172 0
-65 -168 172 0
47 158 27 -173 0
-158 -47 27 -173 0
47 -158 -27 -173 0
-27 -47 158 -173 0
173 -27 -47 -158 0
47 -27 173 158 0
-47 173 158 27 0
47 -158 173 27 0
67 173 -174 0
173 -174 172 0
67 -174 172 0
174 -173 -67 0
-172 174 -173 0
174 -67 -172 0
159 29 49 -175 0
-49 29 -159 -175 0
-29 49 -159 -175 0
-49 159 -29 -175 0
175 -29 -49 -159 0
159 175 -29 49 0
-49 159 175 29 0
175 29 49 -159 0
69 175 -176 0
175 -176 174 0
69 -176 174 0
176 -69 -175 0
176 -174 -175 0
176 -69 -174 0
167 176 -177 0
176 71 -177 0
167 71 -177 0
-167 177 -176 0
177 -176 -71 0
-167 177 -71 0
33 -178 161 53 0
-53 33 -178 -161 0
-178 -161 53 -33 0
-53 -178 161 -33 0
178 -33 -53 -161 0
178 161 53 -33 0
-53 33 178 161 0
33 178 -161 53 0
-179 178 73 0
-179 177 73 0
-179 177 178 0
179 -73 -178 0
179 -73 -177 0
179 -178 -177 0
-180 162 35 55 0
-180 -162 -55 35 0
-180 -162 -35 55 0
-180 -35 -55 162 0
180 -35 -55 -162 0
180 -35 162 55 0
180 -55 162 35 0
-162 180 35 55 0
180 -181 75 0
179 180 -181 0
179 -181 75 0
-180 181 -75 0
-180 -179 181 0
181 -75 -179 0
181 -182 166 0
181 -182 77 0
-182 166 77 0
182 -166 -181 0
182 -181 -77 0
182 -166 -77 0
165 182 -183 79 0
165 -182 -183 -79 0
-182 -183 79 -165 0
182 -183 -79 -165 0
183 -182 -79 -165 0
182 183 79 -165 0
165 182 183 -79 0
165 183 -182 79 0
-99 -183 0
-61 41 -184 0
61 -41 -184 0
184 -41 -61 0
184 61 41 0
81 185 0
185 -184 0
-81 -185 184 0
-186 -83 81 0
-81 -186 83 0
186 -81 -83 0
83 186 81 0
-187 -43 41 0
-187 -41 43 0
187 -41 -43 0
187 43 41 0
-63 61 -188 0
-61 63 -188 0
188 -61 -63 0
63 61 188 0
41 189 0
61 189 0
-41 -61 -189 0
-190 189 187 188 0
-190 189 -187 -188 0
-190 -189 188 -187 0
-190 -189 187 -188 0
-189 190 -187 -188 0
-189 187 190 188 0
189 187 190 -188 0
189 190 188 -187 0
-190 -186 -191 0
-190 -185 -191 0
-186 -185 -191 0
190 186 191 0
185 190 191 0
185 186 191 0
-83 192 0
-81 192 0
83 81 -192 0
192 -85 -193 0
85 -193 -192 0
193 -85 -192 0
193 85 192 0
193 -191 -194 0
-194 191 -193 0
-191 194 -193 0
193 194 191 0
-187 -188 -195 0
-189 -188 -195 0
-189 -187 -195 0
187 188 195 0
189 188 195 0
189 187 195 0
196 -63 0
-61 196 0
63 -196 61 0
196 -65 -197 0
-196 -197 65 0
-65 -196 197 0
196 197 65 0
-43 198 0
-41 198 0
43 41 -198 0
-199 -45 198 0
-199 45 -198 0
-45 199 -198 0
45 199 198 0
-200 199 197 195 0
-200 199 -197 -195 0
-199 -200 197 -195 0
-199 -200 -197 195 0
200 -199 -197 -195 0
200 -199 197 195 0
200 199 -197 195 0
200 199 197 -195 0
200 25 -201 194 0
200 -201 -194 -25 0
-200 -201 194 -25 0
-200 25 -201 -194 0
201 -200 -194 -25 0
201 -200 25 194 0
201 200 25 -194 0
201 200 194 -25 0
-201 0
57 202 0
97 202 0
-57 -97 -202 0
81 203 0
41 203 0
-81 -203 -41 0
43 204 0
204 -203 0
203 -204 -43 0
83 205 0
43 205 0
-83 -205 -43 0
83 206 0
206 -203 0
-83 -206 203 0
45 207 0
-205 -206 -204 207 0
-45 -207 206 0
-45 -207 205 0
-45 -207 204 0
45 208 0
85 208 0
-45 -85 -208 0
85 209 0
209 -205 -206 -204 0
-85 206 -209 0
-85 205 -209 0
-85 204 -209 0
47 210 0
-207 210 -208 -209 0
209 -210 -47 0
-210 -47 208 0
-210 -47 207 0
47 211 0
87 211 0
-47 -87 -211 0
87 212 0
-207 212 -208 -209 0
209 -87 -212 0
208 -87 -212 0
207 -87 -212 0
89 213 0
213 -210 -211 -212 0
-89 -213 212 0
-89 -213 211 0
-89 -213 210 0
89 214 0
49 214 0
-89 -49 -214 0
49 215 0
-210 -211 215 -212 0
-49 212 -215 0
211 -49 -215 0
-49 210 -215 0
91 216 0
-213 -215 216 -214 0
-91 -216 215 0
-91 214 -216 0
213 -91 -216 0
91 217 0
51 217 0
-91 -217 -51 0
51 218 0
-213 218 -215 -214 0
-218 -51 215 0
-218 -51 214 0
-218 213 -51 0
53 219 0
-218 -217 219 -216 0
-53 218 -219 0
-53 -219 217 0
-53 216 -219 0
93 220 0
-218 -217 -216 220 0
-93 218 -220 0
-93 -220 217 0
-93 -220 216 0
53 221 0
93 221 0
-53 -93 -221 0
55 222 0
-220 222 -219 -221 0
-55 -222 221 0
-55 220 -222 0
219 -55 -222 0
55 223 0
95 223 0
-55 -95 -223 0
95 224 0
-220 -219 224 -221 0
-224 -95 221 0
-224 -95 220 0
219 -224 -95 0
97 225 0
-224 225 -223 -222 0
-225 -97 224 0
-225 223 -97 0
-225 222 -97 0
57 226 0
-224 226 -223 -222 0
-57 -226 224 0
-57 -226 223 0
-57 -226 222 0
226 -99 0
-99 225 0
-99 202 0
41 227 0
81 227 0
-41 -81 -227 0
-228 83 43 0
-228 83 -227 0
-228 -227 43 0
-83 228 -43 0
-83 228 227 0
228 -43 227 0
85 -229 45 0
-229 228 45 0
85 -229 228 0
229 -45 -85 0
229 -45 -228 0
229 -85 -228 0
47 87 -230 0
229 47 -230 0
229 87 -230 0
230 -47 -87 0
230 -47 -229 0
230 -87 -229 0
89 49 -231 0
230 89 -231 0
230 49 -231 0
-89 231 -49 0
231 -89 -230 0
231 -49 -230 0
-232 51 91 0
-232 231 91 0
-232 231 51 0
-91 -51 232 0
232 -91 -231 0
232 -51 -231 0
-233 93 53 0
-233 232 53 0
-233 93 232 0
233 -53 -93 0
233 -53 -232 0
233 -93 -232 0
-234 95 55 0
233 -234 55 0
233 -234 95 0
234 -55 -95 0
234 -55 -233 0
234 -95 -233 0
97 -235 57 0
-235 57 234 0
97 -235 234 0
235 -57 -97 0
235 -57 -234 0
235 -97 -234 0
-236 59 99 235 0
-236 59 -235 -99 0
-236 -235 -59 99 0
-236 -99 -59 235 0
236 -59 -99 -235 0
-59 236 99 235 0
59 -99 236 235 0
59 -235 236 99 0
-119 -236 0
81 237 0
101 237 0
-81 -101 -237 0
-103 -238 101 0
-238 -101 103 0
238 -101 -103 0
238 101 103 0
-238 -239 186 0
-239 186 -237 0
-238 -239 -237 0
-186 238 239 0
-186 237 239 0
238 237 239 0
186 -193 -240 0
193 -186 -240 0
240 -186 -193 0
193 240 186 0
-101 241 0
-103 241 0
101 103 -241 0
-105 -242 241 0
-241 -242 105 0
242 -105 -241 0
242 241 105 0
240 -243 -242 0
-243 -242 239 0
240 -243 239 0
242 -240 243 0
242 -239 243 0
-239 -240 243 0
186 244 0
193 244 0
186 193 244 0
-186 -244 -193 0
245 -85 0
245 -192 0
85 192 -245 0
-246 245 -87 0
87 -246 -245 0
-245 246 -87 0
87 245 246 0
-244 -247 246 0
-246 244 -247 0
-246 -244 247 0
247 244 246 0
-105 248 0
-241 248 0
105 241 -248 0
-107 -249 248 0
-248 -249 107 0
-107 -248 249 0
249 107 248 0
247 -250 -249 0
-250 -249 243 0
247 -250 243 0
249 -247 250 0
-243 249 250 0
-243 -247 250 0
-107 251 0
-248 251 0
107 248 -251 0
-252 -109 251 0
-252 -251 109 0
-109 -251 252 0
252 109 251 0
-253 -250 252 0
-253 -252 250 0
253 -252 -250 0
253 252 250 0
254 -87 0
254 -245 0
87 245 -254 0
-89 -255 254 0
-255 -254 89 0
-89 255 -254 0
254 255 89 0
244 256 0
256 -246 0
-244 -256 246 0
256 -255 -257 0
-257 255 -256 0
-255 257 -256 0
256 257 255 0
253 -258 257 49 0
-253 -258 -49 257 0
253 -258 -49 -257 0
-253 -258 -257 49 0
-253 -49 -257 258 0
253 -257 258 49 0
-253 257 258 49 0
253 -49 257 258 0
-258 0
-17 0
-37 0
-57 0
-77 0
-97 0
-117 0
-39 -19 0
145 -39 0
-39 144 0
-39 143 0
1 -21 -259 0
-1 -259 21 0
259 -1 -21 0
1 259 21 0
41 260 0
260 -259 0
-260 259 -41 0
23 124 -261 3 0
-23 -261 3 -124 0
23 -261 -3 -124 0
-23 124 -261 -3 0
261 -3 -23 -124 0
23 124 -3 261 0
-23 124 3 261 0
23 3 261 -124 0
-261 262 0
-260 262 0
260 -262 261 0
43 263 0
-261 263 0
-263 -43 261 0
43 264 0
-260 264 0
260 -264 -43 0
25 146 -265 5 0
-265 5 -25 -146 0
25 -265 -5 -146 0
146 -265 -5 -25 0
265 -5 -25 -146 0
25 146 265 -5 0
146 265 5 -25 0
25 265 5 -146 0
265 266 0
-262 -263 -264 266 0
264 -266 -265 0
-266 -265 263 0
-266 -265 262 0
45 267 0
-262 -263 -264 267 0
-45 264 -267 0
-45 -267 263 0
-45 -267 262 0
45 268 0
265 268 0
-45 -265 -268 0
147 7 27 -269 0
-27 7 -269 -147 0
-7 27 -269 -147 0
-7 -27 147 -269 0
269 -7 -27 -147 0
-7 147 269 27 0
-27 147 269 7 0
269 7 27 -147 0
269 270 0
-268 -266 -267 270 0
-270 268 -269 0
-270 267 -269 0
-270 266 -269 0
47 271 0
271 -268 -266 -267 0
-271 -47 268 0
-271 -47 267 0
-271 -47 266 0
47 272 0
269 272 0
-47 -269 -272 0
148 29 -273 9 0
-148 -273 -29 9 0
-148 29 -273 -9 0
148 -273 -29 -9 0
273 -9 -29 -148 0
148 29 -9 273 0
148 -29 9 273 0
-148 29 9 273 0
273 274 0
-270 -271 -272 274 0
272 -274 -273 0
271 -274 -273 0
-274 -273 270 0
49 275 0
275 -270 -271 -272 0
-275 -49 272 0
-275 271 -49 0
-275 -49 270 0
49 276 0
273 276 0
-49 -273 -276 0
149 -277 31 11 0
-277 11 -149 -31 0
-277 31 -11 -149 0
149 -277 -11 -31 0
277 -11 -31 -149 0
149 277 31 -11 0
149 277 11 -31 0
277 31 11 -149 0
277 278 0
-275 278 -274 -276 0
276 -278 -277 0
275 -278 -277 0
-278 -277 274 0
51 279 0
-275 279 -274 -276 0
-51 -279 276 0
275 -51 -279 0
-51 -279 274 0
51 280 0
277 280 0
-51 -277 -280 0
33 150 -281 13 0
-281 -150 13 -33 0
33 -13 -281 -150 0
-13 150 -281 -33 0
281 -13 -33 -150 0
33 -13 150 281 0
150 281 13 -33 0
33 -150 281 13 0
281 282 0
-279 -278 -280 282 0
-282 280 -281 0
-282 279 -281 0
-282 278 -281 0
53 283 0
-279 -278 -280 283 0
-53 280 -283 0
-53 -283 279 0
-53 278 -283 0
53 284 0
281 284 0
-53 -281 -284 0
151 -285 35 15 0
-35 -285 15 -151 0
-285 35 -15 -151 0
-35 151 -285 -15 0
285 -15 -35 -151 0
285 151 35 -15 0
-35 285 151 15 0
285 35 15 -151 0
285 286 0
-282 -283 -284 286 0
-286 -285 284 0
-286 -285 283 0
-286 -285 282 0
55 287 0
287 -282 -283 -284 0
-55 -287 284 0
-55 -287 283 0
-55 -287 282 0
55 288 0
285 288 0
-55 -285 -288 0
-289 17 37 152 0
-289 17 -37 -152 0
-289 -17 37 -152 0
-289 -17 -37 152 0
289 -17 -37 -152 0
-17 289 37 152 0
289 17 -37 152 0
289 17 37 -152 0
289 290 0
-288 290 -287 -286 0
-289 -290 288 0
-289 -290 287 0
-289 -290 286 0
57 291 0
-288 -287 291 -286 0
-57 -291 288 0
287 -57 -291 0
-57 286 -291 0
57 292 0
289 292 0
-57 -289 -292 0
-59 292 0
-59 291 0
290 -59 0
292 -154 0
291 -154 0
290 -154 0
-45 293 0
293 -198 0
45 198 -293 0
-47 294 0
-293 294 0
47 293 -294 0
-49 295 0
295 -294 0
49 294 -295 0
-51 296 0
296 -295 0
51 295 -296 0
-53 297 0
297 -296 0
53 296 -297 0
297 -298 -55 0
-298 55 -297 0
-55 298 -297 0
297 298 55 0
-23 299 0
299 -21 0
23 -299 21 0
300 -25 0
300 -299 0
25 299 -300 0
301 -27 0
301 -300 0
27 300 -301 0
302 -29 0
302 -301 0
29 301 -302 0
303 -31 0
-302 303 0
31 302 -303 0
304 -33 0
-303 304 0
33 303 -304 0
-305 -35 304 0
-305 -304 35 0
305 -35 -304 0
305 304 35 0
302 -31 -306 0
-302 31 -306 0
-302 306 -31 0
302 31 306 0
300 -27 -307 0
-307 27 -300 0
-27 307 -300 0
300 307 27 0
300 -27 -308 0
27 -300 -308 0
-27 308 -300 0
300 308 27 0
299 -309 -25 0
25 -299 -309 0
-299 309 -25 0
25 299 309 0
299 -310 -25 0
25 -299 -310 0
-299 310 -25 0
25 299 310 0
-23 -311 21 0
23 -311 -21 0
311 -21 -23 0
23 311 21 0
-23 -312 21 0
23 -312 -21 0
312 -21 -23 0
23 312 21 0
312 313 0
312 -21 313 0
-21 313 0
-312 -313 21 0
312 314 0
312 -21 314 0
-21 314 0
-312 21 -314 0
315 -314 0
315 -314 310 0
310 315 0
-310 -315 314 0
316 -314 0
316 -314 310 0
310 316 0
-316 -310 314 0
-316 317 0
308 -316 317 0
308 317 0
-317 316 -308 0
301 -318 -29 0
29 -318 -301 0
318 -29 -301 0
301 29 318 0
301 -319 -29 0
-319 29 -301 0
319 -29 -301 0
301 319 29 0
-316 320 0
308 -316 320 0
308 320 0
-320 316 -308 0
319 -320 321 0
319 321 0
-320 321 0
-319 -321 320 0
321 322 0
322 -306 0
-321 -322 306 0
303 -323 -33 0
33 -303 -323 0
-303 323 -33 0
33 303 323 0
-323 324 0
-322 324 0
323 322 -324 0
-325 -305 324 0
305 -325 -324 0
325 -305 -324 0
305 325 324 0
-51 -326 295 0
-326 -295 51 0
-51 -295 326 0
295 51 326 0
-327 -47 293 0
47 -327 -293 0
-47 327 -293 0
47 327 293 0
308 -316 -328 0
-328 316 -308 0
328 -308 -316 0
308 316 328 0
312 -329 -21 0
-312 -329 21 0
-312 -21 329 0
312 329 21 0
330 -21 0
41 330 0
21 -41 -330 0
-330 -331 -187 0
-330 -329 -331 0
-329 -331 -187 0
330 187 331 0
330 329 331 0
187 329 331 0
-332 -314 310 0
-310 314 -332 0
332 -310 -314 0
332 314 310 0
-199 -333 -332 0
-199 -333 331 0
-333 -332 331 0
332 199 333 0
199 -331 333 0
332 -331 333 0
-334 -328 333 0
-327 -334 333 0
-327 -334 -328 0
334 -333 328 0
334 -333 327 0
334 327 328 0
319 -320 -335 0
-319 -335 320 0
335 -319 -320 0
319 335 320 0
-49 294 -336 0
-294 -336 49 0
336 -49 -294 0
336 294 49 0
-337 -336 -335 0
334 -337 -336 0
334 -337 -335 0
336 337 335 0
336 -334 337 0
-334 337 335 0
-321 306 -338 0
321 -338 -306 0
338 -306 -321 0
321 338 306 0
337 338 -339 0
-326 338 -339 0
-326 337 -339 0
-337 339 -338 0
339 326 -338 0
-337 339 326 0
322 -340 -323 0
323 -322 -340 0
340 -322 -323 0
323 322 340 0
-53 -341 296 0
-341 53 -296 0
-53 341 -296 0
296 341 53 0
-341 -340 -342 0
-341 -342 339 0
-340 -342 339 0
341 340 342 0
341 -339 342 0
340 -339 342 0
-325 -343 342 0
-298 -343 342 0
-325 -298 -343 0
325 -342 343 0
298 -342 343 0
325 298 343 0
344 -35 0
344 -304 0
35 304 -344 0
344 -37 -345 0
-344 -345 37 0
-344 345 -37 0
344 345 37 0
-305 346 0
346 -324 0
305 324 -346 0
346 -347 -345 0
-346 345 -347 0
347 -346 -345 0
347 346 345 0
348 -55 0
348 -297 0
55 297 -348 0
-349 348 -57 0
-348 -349 57 0
-348 -57 349 0
348 57 349 0
-349 -350 -347 0
-349 -350 343 0
-350 -347 343 0
347 349 350 0
349 350 -343 0
347 350 -343 0
-57 351 0
-348 351 0
57 348 -351 0
-352 -59 351 0
-352 -351 59 0
-351 -59 352 0
59 351 352 0
-353 -350 352 0
-352 -353 350 0
-352 353 -350 0
353 350 352 0
-37 354 0
-344 354 0
37 344 -354 0
355 -345 0
355 -346 0
345 346 -355 0
355 -356 39 354 0
355 -356 -39 -354 0
-356 -39 -355 354 0
-356 39 -355 -354 0
-39 -355 356 -354 0
39 -355 356 354 0
355 39 356 -354 0
355 -39 356 354 0
353 19 356 -357 0
-353 -19 356 -357 0
353 -356 -19 -357 0
-353 -356 19 -357 0
-353 -356 357 -19 0
353 -356 357 19 0
-353 357 19 356 0
353 357 -19 356 0
-357 0
-358 199 -331 0
-199 -358 331 0
358 -199 -331 0
199 331 358 0
5 332 358 0
5 -332 -358 0
332 -358 -5 0
-332 -5 358 0
349 -343 -359 0
-349 -359 343 0
359 -349 -343 0
359 349 343 0
17 347 359 0
17 -347 -359 0
347 -17 -359 0
359 -17 -347 0
298 -342 -360 0
-298 -360 342 0
360 -298 -342 0
360 298 342 0
15 325 360 0
15 -325 -360 0
325 -15 -360 0
-325 360 -15 0
336 -361 -334 0
334 -361 -336 0
-334 -336 361 0
334 336 361 0
9 335 361 0
9 -335 -361 0
-361 335 -9 0
361 -335 -9 0
330 -187 -362 0
-330 187 -362 0
-330 -187 362 0
330 187 362 0
329 3 362 -363 0
-329 -3 362 -363 0
-3 329 -362 -363 0
-329 3 -362 -363 0
-329 -3 363 -362 0
329 363 3 -362 0
-329 363 3 362 0
-3 329 363 362 0
-363 0
341 -364 -339 0
-341 -364 339 0
-341 364 -339 0
341 364 339 0
13 340 364 0
13 -340 -364 0
-13 -364 340 0
-13 364 -340 0
-337 -365 326 0
-326 -365 337 0
365 -326 -337 0
365 337 326 0
365 -366 338 11 0
-366 -365 338 -11 0
365 -366 -11 -338 0
-366 -365 11 -338 0
366 -365 -11 -338 0
365 366 11 -338 0
366 -365 338 11 0
365 366 338 -11 0
-366 0
-333 327 -367 0
-327 -367 333 0
367 -327 -333 0
327 367 333 0
7 328 367 0
7 -328 -367 0
-7 -367 328 0
-7 -328 367 0
27 368 0
47 368 0
-27 -47 -368 0
23 369 0
369 -156 0
-23 -369 156 0
43 370 0
370 -156 0
156 -43 -370 0
23 371 0
43 371 0
-23 -43 -371 0
25 372 0
-369 372 -371 -370 0
371 -372 -25 0
370 -372 -25 0
-372 369 -25 0
45 373 0
25 373 0
-45 -373 -25 0
45 374 0
-369 -371 374 -370 0
371 -45 -374 0
-45 370 -374 0
-45 369 -374 0
27 375 0
-373 -372 375 -374 0
-27 -375 374 0
373 -27 -375 0
372 -27 -375 0
47 376 0
-373 -372 376 -374 0
-47 374 -376 0
373 -47 -376 0
372 -47 -376 0
29 377 0
377 -375 -368 -376 0
-29 376 -377 0
-29 375 -377 0
368 -29 -377 0
49 378 0
29 378 0
-49 -29 -378 0
49 379 0
-375 379 -368 -376 0
-49 -379 376 0
-49 -379 375 0
-49 368 -379 0
31 380 0
380 -379 -378 -377 0
-380 379 -31 0
-380 378 -31 0
-380 377 -31 0
51 381 0
31 381 0
-51 -381 -31 0
51 382 0
382 -379 -378 -377 0
-51 -382 379 0
-51 -382 378 0
377 -51 -382 0
33 383 0
-380 383 -382 -381 0
382 -383 -33 0
-383 381 -33 0
-383 380 -33 0
53 384 0
33 384 0
-53 -384 -33 0
53 385 0
-380 -382 385 -381 0
-53 382 -385 0
-53 381 -385 0
-53 380 -385 0
55 386 0
386 -384 -383 -385 0
-55 385 -386 0
-55 384 -386 0
383 -55 -386 0
35 387 0
387 -384 -383 -385 0
-387 -35 385 0
-387 -35 384 0
-387 383 -35 0
35 388 0
55 388 0
-35 -55 -388 0
57 389 0
-387 -388 389 -386 0
-57 -389 388 0
-57 387 -389 0
386 -57 -389 0
57 390 0
37 390 0
-57 -390 -37 0
37 391 0
-387 -388 391 -386 0
-391 -37 388 0
387 -391 -37 0
386 -391 -37 0
-39 391 0
-39 390 0
-39 389 0
-59 391 0
-59 390 0
-59 389 0
168 392 0
171 392 0
-168 -171 -392 0
65 393 0
171 393 0
-65 -171 -393 0
65 394 0
168 394 0
-65 -168 -394 0
173 395 0
-393 -394 -392 395 0
394 -173 -395 0
393 -173 -395 0
392 -173 -395 0
67 396 0
-393 -394 -392 396 0
394 -396 -67 0
393 -396 -67 0
392 -396 -67 0
67 397 0
173 397 0
-67 -173 -397 0
175 398 0
398 -397 -396 -395 0
397 -398 -175 0
-398 -175 396 0
-398 395 -175 0
69 399 0
-397 399 -396 -395 0
397 -69 -399 0
-69 -399 396 0
395 -69 -399 0
69 400 0
175 400 0
-69 -175 -400 0
167 401 0
-400 401 -398 -399 0
-167 -401 400 0
-167 -401 399 0
-167 -401 398 0
71 402 0
-400 -398 402 -399 0
-402 400 -71 0
-402 399 -71 0
-402 398 -71 0
71 403 0
167 403 0
-71 -167 -403 0
178 404 0
-403 -401 -402 404 0
-178 403 -404 0
-178 402 -404 0
-178 401 -404 0
73 405 0
-403 405 -401 -402 0
-73 -405 403 0
-73 -405 402 0
-73 -405 401 0
73 406 0
178 406 0
-73 -178 -406 0
180 407 0
407 -405 -406 -404 0
-180 406 -407 0
-180 405 -407 0
-180 -407 404 0
75 408 0
408 -405 -406 -404 0
406 -75 -408 0
405 -75 -408 0
-75 -408 404 0
75 409 0
180 409 0
-75 -180 -409 0
166 410 0
-408 -407 -409 410 0
-166 409 -410 0
-166 408 -410 0
407 -166 -410 0
77 411 0
411 -408 -407 -409 0
409 -411 -77 0
408 -411 -77 0
407 -411 -77 0
77 412 0
166 412 0
-77 -166 -412 0
412 -79 0
411 -79 0
-79 410 0
412 -165 0
411 -165 0
-165 410 0
-61 -413 155 0
-413 -155 61 0
-61 -155 413 0
61 155 413 0
81 414 0
413 414 0
-81 -413 -414 0
63 169 170 -415 0
-169 -63 170 -415 0
-169 63 -170 -415 0
-170 -63 169 -415 0
-169 415 -170 -63 0
63 415 -170 169 0
415 -63 169 170 0
-169 63 415 170 0
415 416 0
-414 416 0
-416 414 -415 0
83 417 0
417 -414 0
-83 414 -417 0
83 418 0
415 418 0
-83 -415 -418 0
168 -419 171 65 0
168 -65 -419 -171 0
-419 -168 65 -171 0
-65 -419 -168 171 0
-65 419 -168 -171 0
419 -168 171 65 0
168 -65 419 171 0
168 419 65 -171 0
419 420 0
420 -416 -417 -418 0
418 -419 -420 0
417 -419 -420 0
-419 -420 416 0
85 421 0
421 -416 -417 -418 0
418 -421 -85 0
417 -421 -85 0
-421 -85 416 0
85 422 0
419 422 0
-85 -419 -422 0
67 173 -423 172 0
-172 173 -423 -67 0
-172 67 -173 -423 0
-173 -423 -67 172 0
-172 423 -173 -67 0
67 423 -173 172 0
423 173 -67 172 0
-172 67 423 173 0
423 424 0
-421 -420 -422 424 0
422 -424 -423 0
421 -424 -423 0
420 -424 -423 0
87 425 0
-421 -420 425 -422 0
422 -425 -87 0
421 -425 -87 0
420 -425 -87 0
87 426 0
423 426 0
-87 -423 -426 0
-427 69 175 174 0
-427 175 -174 -69 0
-427 69 -174 -175 0
-427 174 -69 -175 0
-174 427 -69 -175 0
69 427 174 -175 0
175 427 174 -69 0
69 175 -174 427 0
427 428 0
-426 -425 -424 428 0
-427 -428 426 0
-427 -428 425 0
-427 -428 424 0
89 429 0
429 -426 -425 -424 0
-89 -429 426 0
-89 -429 425 0
-89 -429 424 0
89 430 0
427 430 0
-89 -427 -430 0
167 -431 176 71 0
167 -431 -176 -71 0
-167 -431 -176 71 0
-167 -431 176 -71 0
-167 -176 431 -71 0
-167 176 431 71 0
167 176 431 -71 0
167 -176 431 71 0
431 432 0
-429 -428 -430 432 0
430 -431 -432 0
429 -431 -432 0
-431 -432 428 0
91 433 0
-429 -428 -430 433 0
-91 430 -433 0
-91 429 -433 0
-91 -433 428 0
91 434 0
431 434 0
-91 -431 -434 0
177 178 -435 73 0
178 -73 -435 -177 0
-178 -435 73 -177 0
177 -73 -178 -435 0
-73 -178 -177 435 0
177 -178 73 435 0
177 178 -73 435 0
178 73 -177 435 0
435 436 0
-433 -432 -434 436 0
-436 434 -435 0
-436 -435 433 0
-436 -435 432 0
93 437 0
-433 -432 -434 437 0
-437 -93 434 0
-437 -93 433 0
-437 -93 432 0
93 438 0
435 438 0
-93 -435 -438 0
179 180 -439 75 0
-179 180 -75 -439 0
-180 -179 -439 75 0
-180 179 -75 -439 0
-180 -179 -75 439 0
-180 179 75 439 0
179 180 -75 439 0
-179 180 75 439 0
439 440 0
-437 -436 -438 440 0
438 -439 -440 0
-439 -440 437 0
-439 -440 436 0
95 441 0
-437 -436 -438 441 0
-441 -95 438 0
-441 -95 437 0
-441 -95 436 0
95 442 0
439 442 0
-95 -439 -442 0
181 166 77 -443 0
166 -181 -443 -77 0
-166 -181 77 -443 0
181 -166 -443 -77 0
-166 -181 443 -77 0
181 -166 77 443 0
181 166 443 -77 0
166 -181 77 443 0
443 444 0
-441 444 -442 -440 0
-444 442 -443 0
-444 -443 441 0
-444 -443 440 0
97 445 0
-441 -442 -440 445 0
442 -445 -97 0
441 -445 -97 0
440 -445 -97 0
97 446 0
443 446 0
-97 -443 -446 0
-99 446 0
-99 445 0
-99 444 0
-183 446 0
-183 445 0
-183 444 0
184 81 21 0
-81 21 -184 0
-81 184 -21 0
-21 81 -184 0
-447 200 -193 0
-447 200 191 0
-447 191 -193 0
193 447 -200 0
447 -200 -191 0
193 447 -191 0
-448 -197 195 0
-199 -448 195 0
-199 -448 -197 0
197 448 -195 0
199 448 -195 0
199 197 448 0
-65 449 0
449 -196 0
65 196 -449 0
449 -450 -67 0
67 -449 -450 0
-449 450 -67 0
67 449 450 0
327 450 -451 448 0
-448 327 -450 -451 0
-327 -448 450 -451 0
-327 -450 -451 448 0
-327 -448 -450 451 0
-327 450 451 448 0
327 -450 451 448 0
-448 327 450 451 0
-246 -452 -451 0
447 -246 -452 0
447 -452 -451 0
452 451 246 0
-447 452 246 0
-447 452 451 0
255 -452 -453 0
-255 452 -453 0
453 -255 -452 0
255 452 453 0
327 -450 -454 0
-450 -454 448 0
327 -454 448 0
-327 450 454 0
-448 450 454 0
454 -327 -448 0
455 -67 0
-449 455 0
67 449 -455 0
455 -456 -69 0
-455 69 -456 0
-455 456 -69 0
456 69 455 0
-457 327 -336 0
336 -327 -457 0
457 -327 -336 0
336 327 457 0
456 -458 454 457 0
-458 457 -454 -456 0
456 -458 -457 -454 0
-458 -457 454 -456 0
458 -457 -454 -456 0
456 458 -457 454 0
458 454 457 -456 0
456 458 457 -454 0
458 29 453 0
-458 29 -453 0
458 -29 -453 0
-458 -29 453 0
-89 459 0
-254 459 0
89 254 -459 0
-91 460 0
460 -459 0
91 459 -460 0
-93 461 0
-460 461 0
93 460 -461 0
-95 462 0
-461 462 0
95 461 -462 0
462 -463 -97 0
97 -463 -462 0
463 -97 -462 0
97 462 463 0
336 464 0
327 464 0
336 327 464 0
-327 -464 -336 0
336 465 0
327 465 0
336 327 465 0
-327 -465 -336 0
326 466 0
466 -465 326 0
466 -465 0
-326 465 -466 0
341 -467 -466 0
466 -341 -467 0
467 -341 -466 0
466 341 467 0
468 -69 0
-455 468 0
69 455 -468 0
-71 469 0
-468 469 0
71 468 -469 0
-73 -470 469 0
-470 73 -469 0
470 -73 -469 0
470 73 469 0
-471 457 -456 0
-471 454 -456 0
-471 454 457 0
456 -457 471 0
456 471 -454 0
-457 471 -454 0
-465 -472 326 0
-326 -472 465 0
472 -326 -465 0
465 472 326 0
468 -71 -473 0
-468 71 -473 0
473 -468 -71 0
468 473 71 0
-472 -474 -473 0
471 -474 -473 0
471 -472 -474 0
474 472 473 0
474 -471 473 0
474 -471 472 0
474 -475 -470 0
474 -475 -467 0
-475 -470 -467 0
470 -474 475 0
-474 475 467 0
470 475 467 0
-73 476 0
476 -469 0
73 469 -476 0
-477 476 -75 0
-477 -476 75 0
-476 477 -75 0
477 476 75 0
341 478 -466 0
478 -466 0
341 478 0
466 -341 -478 0
-479 298 -478 0
-479 -298 478 0
479 -298 -478 0
478 298 479 0
477 -480 479 475 0
-477 -475 -480 479 0
-479 -475 477 -480 0
-479 -477 -480 475 0
-479 -477 -475 480 0
-479 477 480 475 0
-477 480 479 475 0
-475 477 480 479 0
470 474 -481 467 0
-470 -474 -481 467 0
470 -467 -474 -481 0
474 -470 -467 -481 0
481 -467 -470 -474 0
470 474 481 -467 0
474 481 -470 467 0
470 481 -474 467 0
460 -93 -482 0
93 -482 -460 0
-93 482 -460 0
460 93 482 0
471 472 473 -483 0
-471 472 -483 -473 0
-471 -472 473 -483 0
471 -472 -483 -473 0
-471 -472 483 -473 0
471 -472 483 473 0
471 483 472 -473 0
-471 483 472 473 0
-458 -255 -484 0
-255 -484 452 0
-458 -484 452 0
458 484 255 0
484 255 -452 0
458 484 -452 0
-91 -485 459 0
-485 -459 91 0
-91 485 -459 0
485 459 91 0
484 -485 -486 0
-485 483 -486 0
484 483 -486 0
486 -484 485 0
486 485 -483 0
486 -484 -483 0
486 -482 -487 0
486 -487 481 0
-482 -487 481 0
482 -486 487 0
-486 487 -481 0
482 487 -481 0
-488 -95 461 0
-461 -488 95 0
-461 -95 488 0
95 488 461 0
-488 -489 487 0
-488 -489 480 0
-489 480 487 0
-487 489 488 0
-480 489 488 0
-480 -487 489 0
-490 -479 -477 0
-490 -477 475 0
-490 -479 475 0
477 490 479 0
-475 477 490 0
-475 490 479 0
491 -75 0
-476 491 0
75 476 -491 0
-492 491 -77 0
-492 -491 77 0
-491 492 -77 0
491 77 492 0
298 493 0
493 298 -478 0
493 -478 0
-298 478 -493 0
349 -494 -493 0
493 -349 -494 0
494 -349 -493 0
493 349 494 0
490 -495 492 494 0
-490 -492 -495 494 0
-490 -494 -495 492 0
-492 490 -494 -495 0
-490 495 -492 -494 0
495 490 -494 492 0
495 -492 490 494 0
-490 495 492 494 0
495 -496 489 0
495 -496 -463 0
-496 489 -463 0
496 -489 -495 0
496 463 -495 0
496 -489 463 0
497 -97 0
497 -462 0
97 462 -497 0
-99 497 -498 0
99 -497 -498 0
-99 498 -497 0
498 99 497 0
498 -496 -499 0
496 -499 -498 0
-496 499 -498 0
496 498 499 0
-492 -494 -500 0
-492 490 -500 0
490 -494 -500 0
500 492 494 0
-490 500 492 0
-490 500 494 0
501 -77 0
-491 501 0
77 491 -501 0
-502 79 500 501 0
-502 -500 -79 501 0
-501 -502 79 -500 0
-501 -502 500 -79 0
-501 -500 -79 502 0
-501 79 500 502 0
500 -79 501 502 0
79 -500 501 502 0
349 503 0
503 -493 0
503 349 -493 0
493 -349 -503 0
503 -504 352 502 0
-502 -503 -504 352 0
-352 503 -502 -504 0
-352 -503 -504 502 0
-352 504 -502 -503 0
-352 503 504 502 0
504 -503 352 502 0
503 504 -502 352 0
39 504 499 0
39 -504 -499 0
-39 504 -499 0
-39 -504 499 0
-447 -505 246 0
447 -246 -505 0
505 -246 -447 0
447 505 246 0
27 451 505 0
27 -451 -505 0
-27 -505 451 0
-27 505 -451 0
-506 482 -486 0
486 -506 -482 0
506 -482 -486 0
486 506 482 0
33 506 -507 481 0
-506 -507 481 -33 0
506 -507 -33 -481 0
33 -506 -507 -481 0
-506 507 -33 -481 0
33 506 507 -481 0
33 -506 507 481 0
506 507 481 -33 0
-507 0
-508 -489 463 0
-508 489 -463 0
508 -463 -489 0
489 463 508 0
495 -509 508 37 0
-508 495 -37 -509 0
-37 -509 -495 508 0
-508 -509 -495 37 0
-508 -37 509 -495 0
509 -495 508 37 0
-508 495 509 37 0
495 -37 509 508 0
-509 0
-186 185 -510 0
-185 -510 186 0
510 -185 -186 0
185 186 510 0
23 -511 190 510 0
-190 -23 -511 510 0
-23 -511 -510 190 0
-190 23 -511 -510 0
-190 -23 511 -510 0
23 511 -510 190 0
-190 23 511 510 0
-23 511 190 510 0
-511 0
-512 -484 485 0
484 -512 -485 0
-484 -485 512 0
484 485 512 0
483 31 512 -513 0
-512 483 -513 -31 0
-483 512 -513 -31 0
-512 -483 31 -513 0
513 -512 -483 -31 0
513 -483 31 512 0
513 -512 483 31 0
513 483 512 -31 0
-513 0
-514 -487 488 0
-514 -488 487 0
-488 -487 514 0
514 488 487 0
35 -515 514 480 0
-514 -35 -515 480 0
-35 -480 -515 514 0
-514 -480 35 -515 0
-514 -35 -480 515 0
-480 35 515 514 0
-514 35 515 480 0
-35 515 514 480 0
-515 0
-99 -59 0
226 -59 0
-59 225 0
-59 202 0
-516 83 43 227 0
-516 -83 -227 43 0
-516 83 -227 -43 0
-516 -83 -43 227 0
516 -43 -83 -227 0
83 -43 516 227 0
-83 43 516 227 0
83 -227 43 516 0
103 517 0
-516 517 0
-103 -517 516 0
-81 -518 41 0
-41 81 -518 0
518 -41 -81 0
81 518 41 0
101 519 0
-518 519 0
-101 518 -519 0
103 520 0
520 -519 0
-103 519 -520 0
-516 521 0
521 -519 0
516 519 -521 0
-522 85 228 45 0
-522 -228 45 -85 0
-522 -45 85 -228 0
-522 -45 228 -85 0
522 -45 -85 -228 0
-45 85 228 522 0
228 45 -85 522 0
85 -228 45 522 0
522 523 0
523 -517 -520 -521 0
-522 -523 521 0
-522 520 -523 0
-522 517 -523 0
105 524 0
524 -517 -520 -521 0
-105 -524 521 0
-105 -524 520 0
-105 -524 517 0
105 525 0
522 525 0
-105 -522 -525 0
229 47 87 -526 0
47 -229 -526 -87 0
87 -47 -229 -526 0
229 -47 -526 -87 0
526 -47 -87 -229 0
229 87 -47 526 0
229 47 526 -87 0
47 87 -229 526 0
526 527 0
-524 -525 -523 527 0
-526 -527 525 0
-526 524 -527 0
-526 523 -527 0
107 528 0
-524 -525 -523 528 0
-107 -528 525 0
-107 524 -528 0
-107 -528 523 0
107 529 0
526 529 0
-107 -526 -529 0
230 89 49 -530 0
-89 49 -530 -230 0
-49 89 -530 -230 0
-89 -49 230 -530 0
530 -49 -89 -230 0
-49 230 530 89 0
-89 230 530 49 0
530 89 49 -230 0
530 531 0
-529 -528 531 -527 0
-531 -530 529 0
-531 -530 528 0
-531 -530 527 0
109 532 0
-529 -528 -527 532 0
-109 -532 529 0
-109 -532 528 0
-109 -532 527 0
109 533 0
530 533 0
-109 -530 -533 0
231 51 -534 91 0
-91 51 -534 -231 0
-51 -534 91 -231 0
-91 -51 231 -534 0
534 -51 -91 -231 0
-51 231 534 91 0
-91 231 51 534 0
51 534 91 -231 0
534 535 0
-531 -533 -532 535 0
-534 -535 533 0
-534 -535 532 0
-534 531 -535 0
111 536 0
-531 536 -533 -532 0
-111 -536 533 0
-111 -536 532 0
-111 -536 531 0
111 537 0
534 537 0
-111 -534 -537 0
-538 93 232 53 0
-232 -538 -93 53 0
-53 -232 -538 93 0
-53 -538 -93 232 0
538 -53 -93 -232 0
-53 93 232 538 0
-93 232 53 538 0
-232 93 53 538 0
538 539 0
-537 -536 -535 539 0
-538 -539 537 0
-538 536 -539 0
-538 -539 535 0
113 540 0
540 -537 -536 -535 0
-540 537 -113 0
536 -540 -113 0
-540 535 -113 0
113 541 0
538 541 0
-113 -538 -541 0
233 95 55 -542 0
-233 -95 55 -542 0
-233 -55 95 -542 0
-55 -95 233 -542 0
542 -55 -95 -233 0
542 -55 233 95 0
542 -95 233 55 0
-233 542 95 55 0
542 543 0
-539 -541 -540 543 0
-543 -542 541 0
540 -543 -542 0
-543 -542 539 0
115 544 0
544 -539 -541 -540 0
-544 -115 541 0
540 -544 -115 0
-544 -115 539 0
115 545 0
542 545 0
-115 -542 -545 0
97 57 234 -546 0
57 -234 -546 -97 0
97 -57 -234 -546 0
-57 234 -546 -97 0
546 -57 -97 -234 0
97 -57 234 546 0
57 234 546 -97 0
97 57 -234 546 0
546 547 0
-544 -543 547 -545 0
-546 545 -547 0
544 -546 -547 0
-546 -547 543 0
117 548 0
-544 -543 548 -545 0
545 -548 -117 0
544 -548 -117 0
-548 543 -117 0
117 549 0
546 549 0
-117 -546 -549 0
549 -119 0
548 -119 0
547 -119 0
-236 549 0
-236 548 0
-236 547 0
255 550 0
256 550 0
255 256 550 0
-255 -256 -550 0
-485 551 0
550 551 0
485 -550 -551 0
552 -482 0
552 -551 0
482 551 -552 0
552 -553 -488 0
-553 488 -552 0
-488 -552 553 0
552 488 553 0
-252 257 -554 0
-252 -554 250 0
257 -554 250 0
-257 554 252 0
-250 554 252 0
-257 -250 554 0
485 -555 -550 0
-485 -555 550 0
555 -485 -550 0
485 550 555 0
-109 556 0
-251 556 0
109 251 -556 0
-111 -557 556 0
-557 -556 111 0
-111 557 -556 0
557 556 111 0
-558 -557 555 0
-558 -557 554 0
-558 554 555 0
557 558 -555 0
557 558 -554 0
558 -555 -554 0
-482 551 -559 0
482 -559 -551 0
-482 559 -551 0
482 551 559 0
-111 560 0
560 -556 0
111 556 -560 0
560 -561 -113 0
113 -560 -561 0
-560 561 -113 0
113 560 561 0
-559 -561 -562 0
558 -561 -562 0
558 -559 -562 0
562 561 559 0
562 -558 561 0
562 -558 559 0
563 -113 0
563 -560 0
113 560 -563 0
-564 -115 563 0
-564 115 -563 0
-115 -563 564 0
115 563 564 0
562 -564 -565 0
-564 -553 -565 0
562 -553 -565 0
565 -562 564 0
565 564 553 0
565 -562 553 0
-115 566 0
566 -563 0
115 563 -566 0
-567 566 -117 0
117 -567 -566 0
-566 567 -117 0
117 566 567 0
-568 567 -565 0
565 -567 -568 0
568 -567 -565 0
565 568 567 0
-488 569 0
569 -552 0
488 552 -569 0
569 -570 -463 0
-570 463 -569 0
570 -463 -569 0
570 569 463 0
568 57 570 0
57 -568 -570 0
-57 570 -568 0
-57 568 -570 0
-243 249 -571 0
-249 -571 243 0
571 -243 -249 0
571 249 243 0
47 571 247 -572 0
-47 247 -572 -571 0
571 -47 -247 -572 0
47 -247 -572 -571 0
-47 -247 572 -571 0
47 571 -247 572 0
47 247 572 -571 0
571 -47 247 572 0
-572 0
242 -239 -573 0
-573 -242 239 0
-239 -242 573 0
242 573 239 0
240 45 573 -574 0
240 -45 -573 -574 0
-45 573 -574 -240 0
45 -573 -574 -240 0
-45 -573 574 -240 0
45 574 573 -240 0
240 45 -573 574 0
240 -45 574 573 0
-574 0
565 -570 -575 0
565 -567 -575 0
-567 -570 -575 0
570 575 -565 0
567 575 -565 0
570 567 575 0
576 -117 0
576 -566 0
117 566 -576 0
119 -577 576 575 0
-577 576 -575 -119 0
119 -576 -577 -575 0
-576 -577 575 -119 0
-576 577 -575 -119 0
119 -576 577 575 0
577 576 575 -119 0
119 577 576 -575 0
578 -463 0
578 -569 0
463 569 -578 0
578 -579 -498 0
-578 498 -579 0
-578 579 -498 0
498 578 579 0
59 -580 577 579 0
-580 -59 -577 579 0
-580 -59 577 -579 0
59 -580 -577 -579 0
-59 -577 -579 580 0
59 577 -579 580 0
59 -577 579 580 0
-59 577 579 580 0
-580 0
101 81 -581 41 0
-101 -41 81 -581 0
-81 101 -41 -581 0
-81 -101 -581 41 0
-81 -101 -41 581 0
-81 101 581 41 0
-101 81 581 41 0
101 -41 81 581 0
-581 0
-558 -582 561 0
-582 558 -561 0
-558 582 -561 0
582 561 558 0
53 559 582 0
53 -559 -582 0
-53 -582 559 0
-53 582 -559 0
-562 -583 564 0
562 -564 -583 0
-564 583 -562 0
562 583 564 0
55 553 583 0
55 -553 -583 0
-55 -583 553 0
-55 -553 583 0
-238 237 -584 0
238 -584 -237 0
584 -237 -238 0
238 237 584 0
43 186 584 0
43 -186 -584 0
186 -43 -584 0
-186 -43 584 0
557 -554 -585 0
-557 554 -585 0
-557 585 -554 0
585 557 554 0
585 51 -586 555 0
-51 -586 -585 555 0
-51 585 -555 -586 0
-555 51 -586 -585 0
586 -51 -555 -585 0
586 585 -555 51 0
586 51 -585 555 0
586 -51 585 555 0
-586 0
-19 0
-39 0
-59 0
-79 0
-99 0
-119 0
